p cnf 120 1228
1 2 3 0
4 5 6 0
7 8 9 0
10 11 12 0
13 14 15 0
16 17 18 0
19 20 21 0
22 23 24 0
25 26 27 0
28 29 30 0
31 32 33 0
34 35 36 0
37 38 39 0
40 41 42 0
43 44 45 0
46 47 48 0
49 50 51 0
52 53 54 0
55 56 57 0
58 59 60 0
61 62 63 0
64 65 66 0
67 68 69 0
70 71 72 0
73 74 75 0
76 77 78 0
79 80 81 0
82 83 84 0
85 86 87 0
88 89 90 0
91 92 93 0
94 95 96 0
97 98 99 0
100 101 102 0
103 104 105 0
106 107 108 0
109 110 111 0
112 113 114 0
115 116 117 0
118 119 120 0
-1 -2 0
-1 -3 0
-2 -3 0
-4 -5 0
-4 -6 0
-5 -6 0
-7 -8 0
-7 -9 0
-8 -9 0
-10 -11 0
-10 -12 0
-11 -12 0
-13 -14 0
-13 -15 0
-14 -15 0
-16 -17 0
-16 -18 0
-17 -18 0
-19 -20 0
-19 -21 0
-20 -21 0
-22 -23 0
-22 -24 0
-23 -24 0
-25 -26 0
-25 -27 0
-26 -27 0
-28 -29 0
-28 -30 0
-29 -30 0
-31 -32 0
-31 -33 0
-32 -33 0
-34 -35 0
-34 -36 0
-35 -36 0
-37 -38 0
-37 -39 0
-38 -39 0
-40 -41 0
-40 -42 0
-41 -42 0
-43 -44 0
-43 -45 0
-44 -45 0
-46 -47 0
-46 -48 0
-47 -48 0
-49 -50 0
-49 -51 0
-50 -51 0
-52 -53 0
-52 -54 0
-53 -54 0
-55 -56 0
-55 -57 0
-56 -57 0
-58 -59 0
-58 -60 0
-59 -60 0
-61 -62 0
-61 -63 0
-62 -63 0
-64 -65 0
-64 -66 0
-65 -66 0
-67 -68 0
-67 -69 0
-68 -69 0
-70 -71 0
-70 -72 0
-71 -72 0
-73 -74 0
-73 -75 0
-74 -75 0
-76 -77 0
-76 -78 0
-77 -78 0
-79 -80 0
-79 -81 0
-80 -81 0
-82 -83 0
-82 -84 0
-83 -84 0
-85 -86 0
-85 -87 0
-86 -87 0
-88 -89 0
-88 -90 0
-89 -90 0
-91 -92 0
-91 -93 0
-92 -93 0
-94 -95 0
-94 -96 0
-95 -96 0
-97 -98 0
-97 -99 0
-98 -99 0
-100 -101 0
-100 -102 0
-101 -102 0
-103 -104 0
-103 -105 0
-104 -105 0
-106 -107 0
-106 -108 0
-107 -108 0
-109 -110 0
-109 -111 0
-110 -111 0
-112 -113 0
-112 -114 0
-113 -114 0
-115 -116 0
-115 -117 0
-116 -117 0
-118 -119 0
-118 -120 0
-119 -120 0
-1 -7 0
-1 -19 0
-1 -28 0
-1 -31 0
-1 -40 0
-1 -49 0
-1 -82 0
-1 -91 0
-1 -112 0
-4 -10 0
-4 -13 0
-4 -16 0
-4 -31 0
-4 -37 0
-4 -46 0
-4 -61 0
-4 -97 0
-4 -115 0
-7 -1 0
-7 -55 0
-7 -61 0
-7 -79 0
-7 -82 0
-7 -85 0
-7 -88 0
-7 -106 0
-10 -4 0
-10 -16 0
-10 -40 0
-10 -79 0
-10 -88 0
-10 -91 0
-10 -106 0
-10 -118 0
-13 -4 0
-13 -58 0
-13 -73 0
-13 -76 0
-13 -91 0
-13 -97 0
-13 -100 0
-13 -109 0
-13 -112 0
-13 -115 0
-16 -4 0
-16 -10 0
-16 -28 0
-16 -43 0
-16 -52 0
-16 -58 0
-16 -73 0
-16 -82 0
-16 -97 0
-16 -106 0
-19 -1 0
-19 -34 0
-19 -37 0
-19 -64 0
-19 -85 0
-19 -97 0
-19 -100 0
-19 -109 0
-19 -112 0
-22 -31 0
-22 -46 0
-22 -64 0
-22 -73 0
-22 -88 0
-22 -100 0
-22 -109 0
-22 -118 0
-25 -43 0
-25 -46 0
-25 -61 0
-25 -76 0
-25 -88 0
-25 -94 0
-25 -97 0
-25 -115 0
-28 -1 0
-28 -16 0
-28 -31 0
-28 -58 0
-28 -61 0
-28 -64 0
-28 -73 0
-28 -76 0
-28 -82 0
-28 -118 0
-31 -1 0
-31 -4 0
-31 -22 0
-31 -28 0
-31 -43 0
-31 -76 0
-31 -85 0
-31 -88 0
-31 -91 0
-31 -106 0
-34 -19 0
-34 -37 0
-34 -52 0
-34 -58 0
-34 -64 0
-34 -85 0
-34 -91 0
-34 -106 0
-34 -109 0
-37 -4 0
-37 -19 0
-37 -34 0
-37 -55 0
-37 -73 0
-37 -88 0
-37 -103 0
-37 -106 0
-37 -115 0
-40 -1 0
-40 -10 0
-40 -46 0
-40 -55 0
-40 -85 0
-40 -88 0
-40 -103 0
-40 -109 0
-40 -112 0
-43 -16 0
-43 -25 0
-43 -31 0
-43 -46 0
-43 -61 0
-43 -67 0
-43 -73 0
-43 -88 0
-43 -100 0
-43 -112 0
-46 -4 0
-46 -22 0
-46 -25 0
-46 -40 0
-46 -43 0
-46 -70 0
-46 -109 0
-46 -115 0
-46 -118 0
-49 -1 0
-49 -52 0
-49 -55 0
-49 -67 0
-49 -91 0
-49 -97 0
-49 -100 0
-49 -106 0
-49 -109 0
-49 -115 0
-52 -16 0
-52 -34 0
-52 -49 0
-52 -73 0
-52 -76 0
-52 -85 0
-52 -94 0
-52 -106 0
-52 -115 0
-55 -7 0
-55 -37 0
-55 -40 0
-55 -49 0
-55 -64 0
-55 -70 0
-55 -94 0
-55 -118 0
-58 -13 0
-58 -16 0
-58 -28 0
-58 -34 0
-58 -61 0
-58 -82 0
-58 -85 0
-58 -103 0
-58 -109 0
-61 -4 0
-61 -7 0
-61 -25 0
-61 -28 0
-61 -43 0
-61 -58 0
-61 -70 0
-61 -76 0
-61 -82 0
-61 -94 0
-64 -19 0
-64 -22 0
-64 -28 0
-64 -34 0
-64 -55 0
-64 -76 0
-64 -94 0
-64 -103 0
-64 -112 0
-67 -43 0
-67 -49 0
-67 -70 0
-67 -82 0
-67 -94 0
-67 -97 0
-67 -109 0
-67 -118 0
-70 -46 0
-70 -55 0
-70 -61 0
-70 -67 0
-70 -73 0
-70 -82 0
-70 -91 0
-70 -100 0
-73 -13 0
-73 -16 0
-73 -22 0
-73 -28 0
-73 -37 0
-73 -43 0
-73 -52 0
-73 -70 0
-73 -79 0
-73 -82 0
-76 -13 0
-76 -25 0
-76 -28 0
-76 -31 0
-76 -52 0
-76 -61 0
-76 -64 0
-76 -82 0
-76 -85 0
-76 -97 0
-79 -7 0
-79 -10 0
-79 -73 0
-79 -88 0
-79 -91 0
-79 -97 0
-79 -118 0
-82 -1 0
-82 -7 0
-82 -16 0
-82 -28 0
-82 -58 0
-82 -61 0
-82 -67 0
-82 -70 0
-82 -73 0
-82 -76 0
-85 -7 0
-85 -19 0
-85 -31 0
-85 -34 0
-85 -40 0
-85 -52 0
-85 -58 0
-85 -76 0
-85 -112 0
-88 -7 0
-88 -10 0
-88 -22 0
-88 -25 0
-88 -31 0
-88 -37 0
-88 -40 0
-88 -43 0
-88 -79 0
-91 -1 0
-91 -10 0
-91 -13 0
-91 -31 0
-91 -34 0
-91 -49 0
-91 -70 0
-91 -79 0
-94 -25 0
-94 -52 0
-94 -55 0
-94 -61 0
-94 -64 0
-94 -67 0
-94 -103 0
-94 -115 0
-97 -4 0
-97 -13 0
-97 -16 0
-97 -19 0
-97 -25 0
-97 -49 0
-97 -67 0
-97 -76 0
-97 -79 0
-100 -13 0
-100 -19 0
-100 -22 0
-100 -43 0
-100 -49 0
-100 -70 0
-100 -103 0
-100 -112 0
-103 -37 0
-103 -40 0
-103 -58 0
-103 -64 0
-103 -94 0
-103 -100 0
-103 -112 0
-103 -115 0
-103 -118 0
-106 -7 0
-106 -10 0
-106 -16 0
-106 -31 0
-106 -34 0
-106 -37 0
-106 -49 0
-106 -52 0
-109 -13 0
-109 -19 0
-109 -22 0
-109 -34 0
-109 -40 0
-109 -46 0
-109 -49 0
-109 -58 0
-109 -67 0
-112 -1 0
-112 -13 0
-112 -19 0
-112 -40 0
-112 -43 0
-112 -64 0
-112 -85 0
-112 -100 0
-112 -103 0
-115 -4 0
-115 -13 0
-115 -25 0
-115 -37 0
-115 -46 0
-115 -49 0
-115 -52 0
-115 -94 0
-115 -103 0
-118 -10 0
-118 -22 0
-118 -28 0
-118 -46 0
-118 -55 0
-118 -67 0
-118 -79 0
-118 -103 0
-2 -8 0
-2 -20 0
-2 -29 0
-2 -32 0
-2 -41 0
-2 -50 0
-2 -83 0
-2 -92 0
-2 -113 0
-5 -11 0
-5 -14 0
-5 -17 0
-5 -32 0
-5 -38 0
-5 -47 0
-5 -62 0
-5 -98 0
-5 -116 0
-8 -2 0
-8 -56 0
-8 -62 0
-8 -80 0
-8 -83 0
-8 -86 0
-8 -89 0
-8 -107 0
-11 -5 0
-11 -17 0
-11 -41 0
-11 -80 0
-11 -89 0
-11 -92 0
-11 -107 0
-11 -119 0
-14 -5 0
-14 -59 0
-14 -74 0
-14 -77 0
-14 -92 0
-14 -98 0
-14 -101 0
-14 -110 0
-14 -113 0
-14 -116 0
-17 -5 0
-17 -11 0
-17 -29 0
-17 -44 0
-17 -53 0
-17 -59 0
-17 -74 0
-17 -83 0
-17 -98 0
-17 -107 0
-20 -2 0
-20 -35 0
-20 -38 0
-20 -65 0
-20 -86 0
-20 -98 0
-20 -101 0
-20 -110 0
-20 -113 0
-23 -32 0
-23 -47 0
-23 -65 0
-23 -74 0
-23 -89 0
-23 -101 0
-23 -110 0
-23 -119 0
-26 -44 0
-26 -47 0
-26 -62 0
-26 -77 0
-26 -89 0
-26 -95 0
-26 -98 0
-26 -116 0
-29 -2 0
-29 -17 0
-29 -32 0
-29 -59 0
-29 -62 0
-29 -65 0
-29 -74 0
-29 -77 0
-29 -83 0
-29 -119 0
-32 -2 0
-32 -5 0
-32 -23 0
-32 -29 0
-32 -44 0
-32 -77 0
-32 -86 0
-32 -89 0
-32 -92 0
-32 -107 0
-35 -20 0
-35 -38 0
-35 -53 0
-35 -59 0
-35 -65 0
-35 -86 0
-35 -92 0
-35 -107 0
-35 -110 0
-38 -5 0
-38 -20 0
-38 -35 0
-38 -56 0
-38 -74 0
-38 -89 0
-38 -104 0
-38 -107 0
-38 -116 0
-41 -2 0
-41 -11 0
-41 -47 0
-41 -56 0
-41 -86 0
-41 -89 0
-41 -104 0
-41 -110 0
-41 -113 0
-44 -17 0
-44 -26 0
-44 -32 0
-44 -47 0
-44 -62 0
-44 -68 0
-44 -74 0
-44 -89 0
-44 -101 0
-44 -113 0
-47 -5 0
-47 -23 0
-47 -26 0
-47 -41 0
-47 -44 0
-47 -71 0
-47 -110 0
-47 -116 0
-47 -119 0
-50 -2 0
-50 -53 0
-50 -56 0
-50 -68 0
-50 -92 0
-50 -98 0
-50 -101 0
-50 -107 0
-50 -110 0
-50 -116 0
-53 -17 0
-53 -35 0
-53 -50 0
-53 -74 0
-53 -77 0
-53 -86 0
-53 -95 0
-53 -107 0
-53 -116 0
-56 -8 0
-56 -38 0
-56 -41 0
-56 -50 0
-56 -65 0
-56 -71 0
-56 -95 0
-56 -119 0
-59 -14 0
-59 -17 0
-59 -29 0
-59 -35 0
-59 -62 0
-59 -83 0
-59 -86 0
-59 -104 0
-59 -110 0
-62 -5 0
-62 -8 0
-62 -26 0
-62 -29 0
-62 -44 0
-62 -59 0
-62 -71 0
-62 -77 0
-62 -83 0
-62 -95 0
-65 -20 0
-65 -23 0
-65 -29 0
-65 -35 0
-65 -56 0
-65 -77 0
-65 -95 0
-65 -104 0
-65 -113 0
-68 -44 0
-68 -50 0
-68 -71 0
-68 -83 0
-68 -95 0
-68 -98 0
-68 -110 0
-68 -119 0
-71 -47 0
-71 -56 0
-71 -62 0
-71 -68 0
-71 -74 0
-71 -83 0
-71 -92 0
-71 -101 0
-74 -14 0
-74 -17 0
-74 -23 0
-74 -29 0
-74 -38 0
-74 -44 0
-74 -53 0
-74 -71 0
-74 -80 0
-74 -83 0
-77 -14 0
-77 -26 0
-77 -29 0
-77 -32 0
-77 -53 0
-77 -62 0
-77 -65 0
-77 -83 0
-77 -86 0
-77 -98 0
-80 -8 0
-80 -11 0
-80 -74 0
-80 -89 0
-80 -92 0
-80 -98 0
-80 -119 0
-83 -2 0
-83 -8 0
-83 -17 0
-83 -29 0
-83 -59 0
-83 -62 0
-83 -68 0
-83 -71 0
-83 -74 0
-83 -77 0
-86 -8 0
-86 -20 0
-86 -32 0
-86 -35 0
-86 -41 0
-86 -53 0
-86 -59 0
-86 -77 0
-86 -113 0
-89 -8 0
-89 -11 0
-89 -23 0
-89 -26 0
-89 -32 0
-89 -38 0
-89 -41 0
-89 -44 0
-89 -80 0
-92 -2 0
-92 -11 0
-92 -14 0
-92 -32 0
-92 -35 0
-92 -50 0
-92 -71 0
-92 -80 0
-95 -26 0
-95 -53 0
-95 -56 0
-95 -62 0
-95 -65 0
-95 -68 0
-95 -104 0
-95 -116 0
-98 -5 0
-98 -14 0
-98 -17 0
-98 -20 0
-98 -26 0
-98 -50 0
-98 -68 0
-98 -77 0
-98 -80 0
-101 -14 0
-101 -20 0
-101 -23 0
-101 -44 0
-101 -50 0
-101 -71 0
-101 -104 0
-101 -113 0
-104 -38 0
-104 -41 0
-104 -59 0
-104 -65 0
-104 -95 0
-104 -101 0
-104 -113 0
-104 -116 0
-104 -119 0
-107 -8 0
-107 -11 0
-107 -17 0
-107 -32 0
-107 -35 0
-107 -38 0
-107 -50 0
-107 -53 0
-110 -14 0
-110 -20 0
-110 -23 0
-110 -35 0
-110 -41 0
-110 -47 0
-110 -50 0
-110 -59 0
-110 -68 0
-113 -2 0
-113 -14 0
-113 -20 0
-113 -41 0
-113 -44 0
-113 -65 0
-113 -86 0
-113 -101 0
-113 -104 0
-116 -5 0
-116 -14 0
-116 -26 0
-116 -38 0
-116 -47 0
-116 -50 0
-116 -53 0
-116 -95 0
-116 -104 0
-119 -11 0
-119 -23 0
-119 -29 0
-119 -47 0
-119 -56 0
-119 -68 0
-119 -80 0
-119 -104 0
-3 -9 0
-3 -21 0
-3 -30 0
-3 -33 0
-3 -42 0
-3 -51 0
-3 -84 0
-3 -93 0
-3 -114 0
-6 -12 0
-6 -15 0
-6 -18 0
-6 -33 0
-6 -39 0
-6 -48 0
-6 -63 0
-6 -99 0
-6 -117 0
-9 -3 0
-9 -57 0
-9 -63 0
-9 -81 0
-9 -84 0
-9 -87 0
-9 -90 0
-9 -108 0
-12 -6 0
-12 -18 0
-12 -42 0
-12 -81 0
-12 -90 0
-12 -93 0
-12 -108 0
-12 -120 0
-15 -6 0
-15 -60 0
-15 -75 0
-15 -78 0
-15 -93 0
-15 -99 0
-15 -102 0
-15 -111 0
-15 -114 0
-15 -117 0
-18 -6 0
-18 -12 0
-18 -30 0
-18 -45 0
-18 -54 0
-18 -60 0
-18 -75 0
-18 -84 0
-18 -99 0
-18 -108 0
-21 -3 0
-21 -36 0
-21 -39 0
-21 -66 0
-21 -87 0
-21 -99 0
-21 -102 0
-21 -111 0
-21 -114 0
-24 -33 0
-24 -48 0
-24 -66 0
-24 -75 0
-24 -90 0
-24 -102 0
-24 -111 0
-24 -120 0
-27 -45 0
-27 -48 0
-27 -63 0
-27 -78 0
-27 -90 0
-27 -96 0
-27 -99 0
-27 -117 0
-30 -3 0
-30 -18 0
-30 -33 0
-30 -60 0
-30 -63 0
-30 -66 0
-30 -75 0
-30 -78 0
-30 -84 0
-30 -120 0
-33 -3 0
-33 -6 0
-33 -24 0
-33 -30 0
-33 -45 0
-33 -78 0
-33 -87 0
-33 -90 0
-33 -93 0
-33 -108 0
-36 -21 0
-36 -39 0
-36 -54 0
-36 -60 0
-36 -66 0
-36 -87 0
-36 -93 0
-36 -108 0
-36 -111 0
-39 -6 0
-39 -21 0
-39 -36 0
-39 -57 0
-39 -75 0
-39 -90 0
-39 -105 0
-39 -108 0
-39 -117 0
-42 -3 0
-42 -12 0
-42 -48 0
-42 -57 0
-42 -87 0
-42 -90 0
-42 -105 0
-42 -111 0
-42 -114 0
-45 -18 0
-45 -27 0
-45 -33 0
-45 -48 0
-45 -63 0
-45 -69 0
-45 -75 0
-45 -90 0
-45 -102 0
-45 -114 0
-48 -6 0
-48 -24 0
-48 -27 0
-48 -42 0
-48 -45 0
-48 -72 0
-48 -111 0
-48 -117 0
-48 -120 0
-51 -3 0
-51 -54 0
-51 -57 0
-51 -69 0
-51 -93 0
-51 -99 0
-51 -102 0
-51 -108 0
-51 -111 0
-51 -117 0
-54 -18 0
-54 -36 0
-54 -51 0
-54 -75 0
-54 -78 0
-54 -87 0
-54 -96 0
-54 -108 0
-54 -117 0
-57 -9 0
-57 -39 0
-57 -42 0
-57 -51 0
-57 -66 0
-57 -72 0
-57 -96 0
-57 -120 0
-60 -15 0
-60 -18 0
-60 -30 0
-60 -36 0
-60 -63 0
-60 -84 0
-60 -87 0
-60 -105 0
-60 -111 0
-63 -6 0
-63 -9 0
-63 -27 0
-63 -30 0
-63 -45 0
-63 -60 0
-63 -72 0
-63 -78 0
-63 -84 0
-63 -96 0
-66 -21 0
-66 -24 0
-66 -30 0
-66 -36 0
-66 -57 0
-66 -78 0
-66 -96 0
-66 -105 0
-66 -114 0
-69 -45 0
-69 -51 0
-69 -72 0
-69 -84 0
-69 -96 0
-69 -99 0
-69 -111 0
-69 -120 0
-72 -48 0
-72 -57 0
-72 -63 0
-72 -69 0
-72 -75 0
-72 -84 0
-72 -93 0
-72 -102 0
-75 -15 0
-75 -18 0
-75 -24 0
-75 -30 0
-75 -39 0
-75 -45 0
-75 -54 0
-75 -72 0
-75 -81 0
-75 -84 0
-78 -15 0
-78 -27 0
-78 -30 0
-78 -33 0
-78 -54 0
-78 -63 0
-78 -66 0
-78 -84 0
-78 -87 0
-78 -99 0
-81 -9 0
-81 -12 0
-81 -75 0
-81 -90 0
-81 -93 0
-81 -99 0
-81 -120 0
-84 -3 0
-84 -9 0
-84 -18 0
-84 -30 0
-84 -60 0
-84 -63 0
-84 -69 0
-84 -72 0
-84 -75 0
-84 -78 0
-87 -9 0
-87 -21 0
-87 -33 0
-87 -36 0
-87 -42 0
-87 -54 0
-87 -60 0
-87 -78 0
-87 -114 0
-90 -9 0
-90 -12 0
-90 -24 0
-90 -27 0
-90 -33 0
-90 -39 0
-90 -42 0
-90 -45 0
-90 -81 0
-93 -3 0
-93 -12 0
-93 -15 0
-93 -33 0
-93 -36 0
-93 -51 0
-93 -72 0
-93 -81 0
-96 -27 0
-96 -54 0
-96 -57 0
-96 -63 0
-96 -66 0
-96 -69 0
-96 -105 0
-96 -117 0
-99 -6 0
-99 -15 0
-99 -18 0
-99 -21 0
-99 -27 0
-99 -51 0
-99 -69 0
-99 -78 0
-99 -81 0
-102 -15 0
-102 -21 0
-102 -24 0
-102 -45 0
-102 -51 0
-102 -72 0
-102 -105 0
-102 -114 0
-105 -39 0
-105 -42 0
-105 -60 0
-105 -66 0
-105 -96 0
-105 -102 0
-105 -114 0
-105 -117 0
-105 -120 0
-108 -9 0
-108 -12 0
-108 -18 0
-108 -33 0
-108 -36 0
-108 -39 0
-108 -51 0
-108 -54 0
-111 -15 0
-111 -21 0
-111 -24 0
-111 -36 0
-111 -42 0
-111 -48 0
-111 -51 0
-111 -60 0
-111 -69 0
-114 -3 0
-114 -15 0
-114 -21 0
-114 -42 0
-114 -45 0
-114 -66 0
-114 -87 0
-114 -102 0
-114 -105 0
-117 -6 0
-117 -15 0
-117 -27 0
-117 -39 0
-117 -48 0
-117 -51 0
-117 -54 0
-117 -96 0
-117 -105 0
-120 -12 0
-120 -24 0
-120 -30 0
-120 -48 0
-120 -57 0
-120 -69 0
-120 -81 0
-120 -105 0
